p cnf 40 385
1 6 11 16 21 26 31 36 0
2 7 12 17 22 27 32 37 0
3 8 13 18 23 28 33 38 0
4 9 14 19 24 29 34 39 0
5 10 15 20 25 30 35 40 0
-1 -17 0
-1 -18 0
-1 -19 0
-1 -20 0
-2 -18 0
-2 -19 0
-2 -20 0
-3 -19 0
-3 -20 0
-4 -20 0
-1 -32 0
-1 -33 0
-1 -34 0
-1 -35 0
-2 -33 0
-2 -34 0
-2 -35 0
-3 -34 0
-3 -35 0
-4 -35 0
-6 -12 0
-6 -13 0
-6 -14 0
-6 -15 0
-7 -13 0
-7 -14 0
-7 -15 0
-8 -14 0
-8 -15 0
-9 -15 0
-6 -32 0
-6 -33 0
-6 -34 0
-6 -35 0
-7 -33 0
-7 -34 0
-7 -35 0
-8 -34 0
-8 -35 0
-9 -35 0
-6 -37 0
-6 -38 0
-6 -39 0
-6 -40 0
-7 -38 0
-7 -39 0
-7 -40 0
-8 -39 0
-8 -40 0
-9 -40 0
-11 -7 0
-11 -8 0
-11 -9 0
-11 -10 0
-12 -8 0
-12 -9 0
-12 -10 0
-13 -9 0
-13 -10 0
-14 -10 0
-11 -32 0
-11 -33 0
-11 -34 0
-11 -35 0
-12 -33 0
-12 -34 0
-12 -35 0
-13 -34 0
-13 -35 0
-14 -35 0
-16 -2 0
-16 -3 0
-16 -4 0
-16 -5 0
-17 -3 0
-17 -4 0
-17 -5 0
-18 -4 0
-18 -5 0
-19 -5 0
-16 -27 0
-16 -28 0
-16 -29 0
-16 -30 0
-17 -28 0
-17 -29 0
-17 -30 0
-18 -29 0
-18 -30 0
-19 -30 0
-21 -32 0
-21 -33 0
-21 -34 0
-21 -35 0
-22 -33 0
-22 -34 0
-22 -35 0
-23 -34 0
-23 -35 0
-24 -35 0
-26 -17 0
-26 -18 0
-26 -19 0
-26 -20 0
-27 -18 0
-27 -19 0
-27 -20 0
-28 -19 0
-28 -20 0
-29 -20 0
-31 -2 0
-31 -3 0
-31 -4 0
-31 -5 0
-32 -3 0
-32 -4 0
-32 -5 0
-33 -4 0
-33 -5 0
-34 -5 0
-31 -7 0
-31 -8 0
-31 -9 0
-31 -10 0
-32 -8 0
-32 -9 0
-32 -10 0
-33 -9 0
-33 -10 0
-34 -10 0
-31 -12 0
-31 -13 0
-31 -14 0
-31 -15 0
-32 -13 0
-32 -14 0
-32 -15 0
-33 -14 0
-33 -15 0
-34 -15 0
-31 -22 0
-31 -23 0
-31 -24 0
-31 -25 0
-32 -23 0
-32 -24 0
-32 -25 0
-33 -24 0
-33 -25 0
-34 -25 0
-36 -7 0
-36 -8 0
-36 -9 0
-36 -10 0
-37 -8 0
-37 -9 0
-37 -10 0
-38 -9 0
-38 -10 0
-39 -10 0
-1 -2 0
-6 -7 0
-11 -12 0
-16 -17 0
-21 -22 0
-26 -27 0
-31 -32 0
-36 -37 0
-1 -3 0
-6 -8 0
-11 -13 0
-16 -18 0
-21 -23 0
-26 -28 0
-31 -33 0
-36 -38 0
-1 -4 0
-6 -9 0
-11 -14 0
-16 -19 0
-21 -24 0
-26 -29 0
-31 -34 0
-36 -39 0
-1 -5 0
-6 -10 0
-11 -15 0
-16 -20 0
-21 -25 0
-26 -30 0
-31 -35 0
-36 -40 0
-2 -3 0
-7 -8 0
-12 -13 0
-17 -18 0
-22 -23 0
-27 -28 0
-32 -33 0
-37 -38 0
-2 -4 0
-7 -9 0
-12 -14 0
-17 -19 0
-22 -24 0
-27 -29 0
-32 -34 0
-37 -39 0
-2 -5 0
-7 -10 0
-12 -15 0
-17 -20 0
-22 -25 0
-27 -30 0
-32 -35 0
-37 -40 0
-3 -4 0
-8 -9 0
-13 -14 0
-18 -19 0
-23 -24 0
-28 -29 0
-33 -34 0
-38 -39 0
-3 -5 0
-8 -10 0
-13 -15 0
-18 -20 0
-23 -25 0
-28 -30 0
-33 -35 0
-38 -40 0
-4 -5 0
-9 -10 0
-14 -15 0
-19 -20 0
-24 -25 0
-29 -30 0
-34 -35 0
-39 -40 0
-1 -6 0
-1 -11 0
-1 -16 0
-1 -21 0
-1 -26 0
-1 -31 0
-1 -36 0
-6 -11 0
-6 -16 0
-6 -21 0
-6 -26 0
-6 -31 0
-6 -36 0
-11 -16 0
-11 -21 0
-11 -26 0
-11 -31 0
-11 -36 0
-16 -21 0
-16 -26 0
-16 -31 0
-16 -36 0
-21 -26 0
-21 -31 0
-21 -36 0
-26 -31 0
-26 -36 0
-31 -36 0
-2 -7 0
-2 -12 0
-2 -17 0
-2 -22 0
-2 -27 0
-2 -32 0
-2 -37 0
-7 -12 0
-7 -17 0
-7 -22 0
-7 -27 0
-7 -32 0
-7 -37 0
-12 -17 0
-12 -22 0
-12 -27 0
-12 -32 0
-12 -37 0
-17 -22 0
-17 -27 0
-17 -32 0
-17 -37 0
-22 -27 0
-22 -32 0
-22 -37 0
-27 -32 0
-27 -37 0
-32 -37 0
-3 -8 0
-3 -13 0
-3 -18 0
-3 -23 0
-3 -28 0
-3 -33 0
-3 -38 0
-8 -13 0
-8 -18 0
-8 -23 0
-8 -28 0
-8 -33 0
-8 -38 0
-13 -18 0
-13 -23 0
-13 -28 0
-13 -33 0
-13 -38 0
-18 -23 0
-18 -28 0
-18 -33 0
-18 -38 0
-23 -28 0
-23 -33 0
-23 -38 0
-28 -33 0
-28 -38 0
-33 -38 0
-4 -9 0
-4 -14 0
-4 -19 0
-4 -24 0
-4 -29 0
-4 -34 0
-4 -39 0
-9 -14 0
-9 -19 0
-9 -24 0
-9 -29 0
-9 -34 0
-9 -39 0
-14 -19 0
-14 -24 0
-14 -29 0
-14 -34 0
-14 -39 0
-19 -24 0
-19 -29 0
-19 -34 0
-19 -39 0
-24 -29 0
-24 -34 0
-24 -39 0
-29 -34 0
-29 -39 0
-34 -39 0
-5 -10 0
-5 -15 0
-5 -20 0
-5 -25 0
-5 -30 0
-5 -35 0
-5 -40 0
-10 -15 0
-10 -20 0
-10 -25 0
-10 -30 0
-10 -35 0
-10 -40 0
-15 -20 0
-15 -25 0
-15 -30 0
-15 -35 0
-15 -40 0
-20 -25 0
-20 -30 0
-20 -35 0
-20 -40 0
-25 -30 0
-25 -35 0
-25 -40 0
-30 -35 0
-30 -40 0
-35 -40 0
